job_count = 28 ;
duration = [|29, 11, 7|8, 16, 4|11, 18, 3|17, 2, 9|7, 16, 3|9, 16, 3|16, 12, 5|4, 10, 4|25, 4, 3|5, 7, 4|24, 15, 8|27, 5, 3|7, 15, 3|29, 7, 4|27, 5, 6|25, 18, 9|9, 5, 8|4, 7, 2|11, 10, 9|23, 10, 5|3, 12, 9|12, 9, 1|25, 10, 5|25, 13, 7|16, 13, 7|19, 17, 8|21, 16, 6|11, 6, 3|] ;
machine_count = 3 ;
cost = [|14, 27, 33|12, 29, 58|14, 32, 46|13, 33, 53|18, 22, 41|17, 21, 40|19, 25, 56|19, 21, 51|19, 31, 50|12, 31, 43|14, 28, 51|19, 37, 31|15, 29, 43|14, 20, 44|14, 35, 46|19, 36, 51|12, 34, 33|13, 27, 39|18, 25, 56|15, 32, 43|17, 28, 49|12, 34, 48|17, 22, 40|12, 28, 33|19, 20, 55|19, 36, 34|14, 24, 49|13, 37, 31|] ;
deadline = [62, 62, 62, 62, 62, 62, 62, 62, 62, 62, 62, 62, 62, 62, 62, 62, 62, 62, 62, 62, 62, 62, 62, 62, 62, 62, 62, 62] ;
release = [0, 0, 0, 0, 0, 0, 0, 0, 0, 0, 0, 0, 0, 0, 0, 0, 0, 0, 0, 0, 0, 0, 0, 0, 0, 0, 0, 0] ;
resource = [|8, 8, 8|3, 3, 3|7, 7, 7|1, 1, 1|9, 9, 9|6, 6, 6|3, 3, 3|8, 8, 8|2, 2, 2|7, 7, 7|4, 4, 4|8, 8, 8|6, 6, 6|7, 7, 7|6, 6, 6|4, 4, 4|7, 7, 7|8, 8, 8|6, 6, 6|7, 7, 7|3, 3, 3|1, 1, 1|2, 2, 2|6, 6, 6|6, 6, 6|2, 2, 2|1, 1, 1|6, 6, 6|] ;
capacities = [10, 10, 10] ;
